Academic license - for non-commercial use only
Optimize a model with 18075 rows, 93051 columns and 198123 nonzeros
Variable types: 93025 continuous, 26 integer (0 binary)
Coefficient statistics:
  Matrix range     [1e+00, 3e+02]
  Objective range  [5e-02, 8e+01]
  Bounds range     [8e-04, 1e+01]
  RHS range        [3e-01, 6e+00]
Found heuristic solution: objective 705.7136000
Found heuristic solution: objective 705.7136000
Presolve removed 4998 rows and 47634 columns
Presolve time: 0.43s
Presolved: 13077 rows, 45417 columns, 103078 nonzeros
Variable types: 45391 continuous, 26 integer (26 binary)
Deterministic concurrent LP optimizer: primal and dual simplex
Showing first log only...

Concurrent spin time: 0.14s

Solved with dual simplex
Root relaxation: objective 5.625999e+02, 17336 iterations, 3.49 seconds
    Nodes    |    Current Node    |     Objective Bounds      |     Work
 Expl Unexpl |  Obj  Depth IntInf | Incumbent    BestBd   Gap | It/Node Time

     0     0  628.32582    0   24  705.71360  628.32582  11.0%     -    4s
     0     0  628.86512    0   24  705.71360  628.86512  10.9%     -   12s
     0     0  633.87163    0   24  705.71360  633.87163  10.2%     -   24s
     0     0  639.26980    0   24  705.71360  639.26980  9.42%     -   33s
     0     0  642.39153    0   24  705.71360  642.39153  8.97%     -   41s
     0     0  644.93492    0   25  705.71360  644.93492  8.61%     -   54s
     0     0  646.91985    0   25  705.71360  646.91985  8.33%     -   64s
     0     0  648.17746    0   25  705.71360  648.17746  8.15%     -   74s
     0     0  648.54235    0   25  705.71360  648.54235  8.10%     -   79s
     0     0  648.56043    0   25  705.71360  648.56043  8.10%     -   81s
     0     0  648.56164    0   25  705.71360  648.56164  8.10%     -   82s
     0     0  648.59570    0   25  705.71360  648.59570  8.09%     -   82s
     0     0  648.59574    0   25  705.71360  648.59574  8.09%     -   83s
     0     0  653.35282    0   25  705.71360  653.35282  7.42%     -   98s
     0     0  658.82590    0   25  705.71360  658.82590  6.64%     -  115s
     0     0  660.09555    0   24  705.71360  660.09555  6.46%     -  129s
     0     0  661.43684    0   24  705.71360  661.43684  6.27%     -  141s
     0     0  661.59114    0   24  705.71360  661.59114  6.25%     -  148s
     0     0  661.61128    0   24  705.71360  661.61128  6.25%     -  152s
     0     0  668.80818    0   24  705.71360  668.80818  5.23%     -  178s
     0     0  671.88372    0   23  705.71360  671.88372  4.79%     -  205s
     0     0  672.32314    0   23  705.71360  672.32314  4.73%     -  216s
     0     0  672.39299    0   24  705.71360  672.39299  4.72%     -  224s
     0     0  672.43577    0   24  705.71360  672.43577  4.72%     -  231s
     0     0  678.40198    0   24  705.71360  678.40198  3.87%     -  260s
     0     0  679.56581    0   24  705.71360  679.56581  3.71%     -  280s
     0     0  679.82325    0   24  705.71360  679.82325  3.67%     -  289s
     0     0  679.89523    0   24  705.71360  679.89523  3.66%     -  307s
     0     0  684.29103    0   24  705.71360  684.29103  3.04%     -  341s
     0     0  685.34859    0   24  705.71360  685.34859  2.89%     -  365s
     0     0  685.50489    0   24  705.71360  685.50489  2.86%     -  378s
     0     0  685.57329    0   24  705.71360  685.57329  2.85%     -  387s
     0     0  688.66890    0   24  705.71360  688.66890  2.42%     -  413s
     0     0  690.10475    0   24  705.71360  690.10475  2.21%     -  441s
     0     0  692.54302    0   24  705.71360  692.54302  1.87%     -  453s
     0     0  694.15223    0   24  705.71360  694.15223  1.64%     -  463s
     0     0  694.36188    0   23  705.71360  694.36188  1.61%     -  471s
     0     0  694.45151    0   24  705.71360  694.45151  1.60%     -  480s
     0     0  694.98856    0   23  705.71360  694.98856  1.52%     -  491s
     0     0  695.24413    0   22  705.71360  695.24413  1.48%     -  506s
     0     0  695.35854    0   23  705.71360  695.35854  1.47%     -  517s
     0     0  695.81968    0   23  705.71360  695.81968  1.40%     -  535s
H    0     0                     698.2189566  695.81968  0.34%     -  560s
     0     2  695.81968    0   23  698.21896  695.81968  0.34%     -  577s
     1     2     cutoff    1       698.21896  695.82104  0.34%  17.0  585s
     3     2  695.93289    2   22  698.21896  695.83677  0.34%  6811  602s
     5     2     cutoff    3       698.21896  695.94140  0.33%  6618  611s
     9     3  697.11635    5    1  698.21896  696.83612  0.20%  6015  616s
*   11     0               6     697.3288496  697.30735  0.00%  5227  616s
Cutting planes:
  Implied bound: 22824
  MIR: 223
  Flow cover: 28
Explored 14 nodes (510105 simplex iterations) in 616.94 seconds
Thread count was 4 (of 4 available processors)

Solution count 4: 697.329 698.219 705.714 705.714 

Optimal solution found (tolerance 1.00e-04)
Best objective 6.973288495799e+02, best bound 6.973288495799e+02, gap 0.0000%
Gurobi status= 2